ncol = 10;
nrow = 10;
nfloor = 29;
floor_row = [1, 1, 1, 2, 3, 3, 3, 3, 3, 3, 4, 4, 5, 5, 5, 6, 6, 7, 7, 7, 7, 7, 7, 7, 7, 9, 9, 10, 10];
floor_col = [2, 5, 8, 8, 2, 4, 6, 7, 9, 10, 5, 8, 2, 5, 8, 2, 8, 1, 2, 4, 6, 7, 8, 9, 10, 2, 9, 2, 8];

